letting n_nurses=25
letting n_days=7
letting n_shift_types=4
letting max_covers=11
letting t_covers=87
letting covers=[8,8,4,0,7,3,8,0,11,8,4,0,1,0,0,0,6,8,3,0,2,2,1,0,0,1,2,0]
letting prefes=[1,1,2,1,3,1,3,3,3,1,3,3,3,1,3,3,1,1,2,1,1,1,2,1,3,1,3,3,2,2,1,2,3,4,3,3,3,4,3,3,3,4,3,3,2,2,1,2,2,2,1,2,3,4,3,3,2,2,2,2,3,4,3,3,3,4,3,3,3,4,3,3,2,2,2,2,2,2,2,2,3,4,3,3,2,2,2,2,3,1,3,3,3,1,3,3,3,1,3,3,2,2,2,2,2,2,2,2,3,1,3,3,2,2,1,2,3,1,3,3,3,1,3,3,3,1,3,3,2,2,1,2,2,2,1,2,3,1,3,3,2,2,1,2,3,1,3,3,3,1,3,3,3,1,3,3,2,2,1,2,2,2,1,2,3,1,3,3,1,2,1,2,1,1,1,1,1,1,1,1,1,1,1,1,1,2,1,2,1,2,1,2,1,1,1,1,2,2,1,2,1,1,1,1,1,1,1,1,1,1,1,1,2,2,1,2,2,2,1,2,1,1,1,1,1,1,1,1,3,1,3,3,3,1,3,3,3,1,3,3,1,1,1,1,1,1,1,1,3,1,3,3,2,2,1,2,3,1,3,3,3,1,3,3,3,1,3,3,2,2,1,2,2,2,1,2,3,1,3,3,2,1,1,2,3,1,3,3,3,1,3,3,3,1,3,3,2,1,1,2,2,1,1,2,3,1,3,3,2,2,1,2,3,1,3,3,3,1,3,3,3,1,3,3,2,2,1,2,2,2,1,2,3,1,3,3,2,2,1,2,3,3,3,3,3,3,3,3,3,3,3,3,2,2,1,2,2,2,1,2,3,3,3,3,2,2,1,2,1,3,1,1,1,3,1,1,1,3,1,1,2,2,1,2,2,2,1,2,1,3,1,1,1,1,1,1,3,1,3,3,3,1,3,3,3,1,3,3,1,1,1,1,1,1,1,1,3,1,3,3,2,2,2,2,1,1,1,1,1,1,1,1,1,1,1,1,2,2,2,2,2,2,2,2,1,1,1,1,2,2,2,2,1,1,1,1,1,1,1,1,1,1,1,1,2,2,2,2,2,2,2,2,1,1,1,1,2,2,1,2,3,1,3,3,3,1,3,3,3,1,3,3,2,2,1,2,2,2,1,2,3,1,3,3,2,2,1,1,3,1,3,3,3,1,3,3,3,1,3,3,2,2,1,1,2,2,1,1,3,1,3,3,2,1,1,2,3,1,3,3,3,1,3,3,3,1,3,3,2,1,1,2,2,1,1,2,3,1,3,3,2,2,1,2,3,3,3,3,3,3,3,3,3,3,3,3,2,2,1,2,2,2,1,2,3,3,3,3,1,2,1,1,3,1,3,3,3,1,3,3,3,1,3,3,1,2,1,1,1,2,1,1,3,1,3,3,2,2,1,2,3,1,3,3,3,1,3,3,3,1,3,3,2,2,1,2,2,2,1,2,3,1,3,3,2,2,1,2,3,1,3,3,3,1,3,3,3,1,3,3,2,2,1,2,2,2,1,2,3,1,3,3,2,2,1,2,3,1,3,3,3,1,3,3,3,1,3,3,2,2,1,2,2,2,1,2,3,1,3,3]
letting ub =  295
